p tw 123 137
1 2
2 36
3 14
4 5
5 6
5 11
6 7
7 8
8 9
8 11
9 10
10 20
11 12
12 13
13 15
13 20
14 25
14 29
15 16
16 17
17 18
18 19
19 46
20 21
21 22
22 23
23 24
24 26
25 29
26 27
27 28
29 30
30 31
31 32
32 33
33 34
34 35
35 37
36 47
36 80
37 38
38 39
39 40
40 41
41 42
42 43
43 44
44 45
45 46
46 48
47 58
48 49
49 50
50 51
50 20
51 52
52 53
53 54
54 55
55 56
55 60
56 57
57 59
58 69
59 27
60 61
61 62
62 63
63 64
64 65
65 66
66 67
66 83
67 68
68 70
69 80
70 71
71 72
72 73
72 75
73 74
74 111
75 76
76 77
77 78
78 79
79 81
80 91
81 82
82 111
83 84
84 85
85 86
86 87
86 97
87 88
88 89
89 90
90 92
90 97
91 102
92 93
93 94
94 95
95 96
96 97
97 98
98 99
99 100
100 101
101 103
102 113
103 104
103 105
104 27
105 106
106 107
107 108
108 109
109 110
109 20
110 52
111 112
112 114
113 3
114 115
115 116
116 117
117 118
117 123
118 119
119 120
120 121
121 122
121 15
122 20
123 4
